p edge 160 1254 123
e 1 11
e 1 20
e 1 22
e 1 54
e 1 84
e 1 88
e 1 108
e 1 122
e 1 133
e 1 138
e 1 141
e 1 145
e 1 152
e 2 14
e 2 20
e 2 42
e 2 46
e 2 51
e 2 52
e 2 55
e 2 63
e 2 66
e 2 70
e 2 79
e 2 98
e 2 116
e 2 119
e 2 136
e 2 158
e 3 5
e 3 19
e 3 22
e 3 23
e 3 32
e 3 42
e 3 43
e 3 47
e 3 49
e 3 56
e 3 57
e 3 58
e 3 75
e 3 76
e 3 87
e 3 94
e 3 117
e 3 119
e 3 120
e 3 125
e 3 133
e 3 147
e 3 150
e 4 8
e 4 10
e 4 43
e 4 50
e 4 57
e 4 59
e 4 60
e 4 63
e 4 76
e 4 83
e 4 84
e 4 87
e 4 100
e 4 101
e 4 151
e 5 7
e 5 8
e 5 12
e 5 28
e 5 34
e 5 36
e 5 37
e 5 40
e 5 42
e 5 68
e 5 72
e 5 73
e 5 81
e 5 103
e 5 116
e 5 121
e 5 132
e 5 134
e 5 146
e 6 9
e 6 29
e 6 50
e 6 55
e 6 78
e 6 83
e 6 111
e 6 113
e 7 15
e 7 16
e 7 20
e 7 50
e 7 59
e 7 68
e 7 76
e 7 77
e 7 81
e 7 90
e 7 93
e 7 98
e 7 136
e 7 139
e 8 11
e 8 37
e 8 62
e 8 67
e 8 84
e 8 108
e 8 139
e 8 140
e 8 160
e 9 12
e 9 13
e 9 26
e 9 28
e 9 44
e 9 75
e 9 101
e 9 103
e 9 134
e 9 140
e 10 15
e 10 36
e 10 40
e 10 44
e 10 51
e 10 70
e 10 71
e 10 74
e 10 82
e 10 93
e 10 133
e 10 144
e 10 148
e 10 149
e 10 152
e 10 156
e 11 20
e 11 46
e 11 47
e 11 54
e 11 67
e 11 72
e 11 75
e 11 76
e 11 79
e 11 93
e 11 114
e 11 119
e 11 131
e 11 139
e 12 51
e 12 65
e 12 77
e 12 79
e 12 84
e 12 104
e 12 109
e 12 117
e 12 125
e 12 127
e 13 19
e 13 42
e 13 45
e 13 59
e 13 79
e 13 82
e 13 98
e 13 103
e 13 104
e 13 125
e 13 129
e 13 134
e 13 135
e 13 137
e 13 149
e 14 25
e 14 38
e 14 44
e 14 50
e 14 51
e 14 54
e 14 63
e 14 89
e 14 124
e 14 130
e 14 132
e 14 133
e 14 145
e 14 150
e 14 155
e 15 51
e 15 76
e 15 77
e 15 78
e 15 84
e 15 86
e 15 103
e 15 110
e 15 115
e 15 142
e 15 146
e 15 160
e 16 19
e 16 22
e 16 27
e 16 43
e 16 50
e 16 64
e 16 103
e 16 106
e 16 109
e 16 114
e 16 120
e 16 129
e 16 140
e 16 159
e 17 24
e 17 28
e 17 30
e 17 36
e 17 41
e 17 46
e 17 47
e 17 67
e 17 78
e 17 79
e 17 91
e 17 93
e 17 130
e 17 158
e 18 64
e 18 66
e 18 72
e 18 75
e 18 85
e 18 96
e 18 98
e 18 105
e 18 107
e 18 114
e 18 137
e 18 138
e 18 142
e 18 151
e 19 20
e 19 26
e 19 41
e 19 44
e 19 45
e 19 67
e 19 91
e 19 108
e 19 113
e 19 123
e 19 154
e 20 23
e 20 34
e 20 36
e 20 50
e 20 52
e 20 53
e 20 61
e 20 64
e 20 82
e 20 95
e 20 98
e 20 121
e 20 135
e 20 137
e 20 146
e 20 158
e 21 32
e 21 36
e 21 54
e 21 58
e 21 65
e 21 66
e 21 74
e 21 79
e 21 87
e 21 112
e 21 129
e 21 144
e 21 145
e 21 154
e 22 34
e 22 46
e 22 68
e 22 70
e 22 75
e 22 78
e 22 79
e 22 80
e 22 82
e 22 85
e 22 99
e 22 131
e 22 137
e 22 138
e 22 141
e 22 143
e 22 151
e 23 26
e 23 32
e 23 35
e 23 43
e 23 47
e 23 49
e 23 52
e 23 63
e 23 68
e 23 77
e 23 92
e 23 109
e 23 110
e 23 124
e 23 132
e 23 140
e 23 143
e 23 149
e 23 159
e 24 27
e 24 31
e 24 33
e 24 50
e 24 99
e 24 103
e 24 109
e 24 113
e 24 116
e 24 119
e 24 141
e 25 27
e 25 36
e 25 44
e 25 58
e 25 61
e 25 71
e 25 94
e 25 111
e 25 119
e 25 122
e 25 133
e 25 152
e 26 33
e 26 35
e 26 39
e 26 107
e 26 117
e 26 127
e 26 135
e 26 136
e 26 138
e 26 147
e 26 156
e 26 157
e 26 159
e 27 45
e 27 55
e 27 66
e 27 79
e 27 96
e 27 117
e 27 120
e 27 135
e 27 148
e 28 40
e 28 46
e 28 47
e 28 50
e 28 53
e 28 65
e 28 69
e 28 91
e 28 93
e 28 115
e 28 143
e 28 147
e 29 30
e 29 34
e 29 41
e 29 43
e 29 44
e 29 56
e 29 60
e 29 72
e 29 76
e 29 78
e 29 79
e 29 100
e 29 109
e 29 122
e 29 147
e 29 148
e 29 156
e 29 157
e 30 53
e 30 76
e 30 103
e 30 109
e 30 127
e 30 132
e 30 135
e 30 143
e 31 43
e 31 44
e 31 77
e 31 91
e 31 101
e 31 103
e 31 105
e 31 108
e 31 109
e 31 116
e 31 117
e 31 128
e 31 137
e 31 149
e 31 153
e 32 33
e 32 58
e 32 75
e 32 79
e 32 92
e 32 98
e 32 118
e 32 124
e 32 126
e 32 127
e 32 156
e 33 41
e 33 67
e 33 80
e 33 86
e 33 98
e 33 101
e 33 105
e 33 113
e 33 143
e 33 150
e 33 158
e 33 159
e 34 37
e 34 43
e 34 55
e 34 62
e 34 64
e 34 65
e 34 66
e 34 116
e 34 117
e 34 129
e 34 137
e 34 151
e 34 153
e 34 154
e 35 45
e 35 54
e 35 61
e 35 73
e 35 78
e 35 81
e 35 83
e 35 89
e 35 96
e 35 101
e 35 121
e 35 137
e 35 146
e 35 149
e 35 154
e 36 40
e 36 43
e 36 62
e 36 63
e 36 102
e 36 138
e 36 145
e 36 149
e 36 157
e 37 41
e 37 42
e 37 68
e 37 81
e 37 113
e 37 114
e 37 122
e 37 127
e 37 135
e 37 146
e 37 153
e 38 48
e 38 56
e 38 60
e 38 69
e 38 76
e 38 77
e 38 81
e 38 88
e 38 113
e 38 115
e 38 135
e 38 139
e 38 152
e 38 154
e 38 155
e 38 160
e 39 41
e 39 45
e 39 57
e 39 59
e 39 70
e 39 129
e 39 136
e 39 143
e 39 150
e 39 151
e 40 48
e 40 57
e 40 69
e 40 94
e 40 109
e 40 116
e 40 123
e 40 127
e 40 128
e 40 138
e 40 140
e 40 144
e 40 159
e 41 53
e 41 57
e 41 71
e 41 72
e 41 78
e 41 80
e 41 81
e 41 83
e 41 99
e 41 102
e 41 109
e 41 112
e 41 126
e 41 127
e 41 136
e 41 140
e 41 155
e 42 62
e 42 91
e 42 97
e 42 100
e 42 116
e 42 119
e 42 140
e 42 157
e 43 49
e 43 60
e 43 71
e 43 112
e 43 125
e 43 142
e 44 53
e 44 55
e 44 86
e 44 94
e 44 103
e 44 115
e 44 134
e 44 139
e 44 148
e 44 157
e 44 159
e 45 58
e 45 60
e 45 81
e 45 91
e 45 124
e 45 126
e 45 130
e 45 147
e 45 152
e 45 156
e 45 160
e 46 51
e 46 58
e 46 60
e 46 84
e 46 100
e 46 111
e 46 116
e 46 120
e 46 125
e 46 132
e 46 135
e 46 150
e 47 54
e 47 86
e 47 90
e 47 105
e 47 108
e 47 112
e 47 115
e 47 129
e 47 130
e 47 150
e 47 156
e 48 54
e 48 55
e 48 65
e 48 76
e 48 82
e 48 111
e 48 120
e 48 129
e 48 139
e 48 141
e 48 146
e 48 157
e 49 61
e 49 81
e 49 85
e 49 119
e 49 123
e 49 130
e 49 151
e 50 53
e 50 55
e 50 64
e 50 67
e 50 72
e 50 74
e 50 79
e 50 90
e 50 92
e 50 96
e 50 98
e 50 113
e 50 117
e 50 118
e 50 120
e 50 126
e 50 135
e 50 136
e 50 141
e 50 148
e 50 152
e 50 159
e 51 66
e 51 69
e 51 77
e 51 90
e 51 106
e 51 109
e 51 145
e 51 158
e 52 55
e 52 60
e 52 64
e 52 79
e 52 80
e 52 84
e 52 85
e 52 87
e 52 90
e 52 94
e 52 97
e 52 98
e 52 114
e 52 116
e 52 142
e 52 156
e 53 65
e 53 69
e 53 82
e 53 85
e 53 89
e 53 94
e 53 97
e 53 111
e 53 117
e 53 120
e 53 135
e 53 138
e 53 160
e 54 65
e 54 94
e 54 110
e 54 129
e 54 136
e 54 145
e 55 57
e 55 61
e 55 62
e 55 69
e 55 73
e 55 93
e 55 119
e 55 120
e 55 124
e 55 140
e 55 147
e 55 148
e 55 150
e 56 60
e 56 76
e 56 92
e 56 96
e 56 134
e 56 137
e 56 145
e 56 149
e 56 153
e 56 157
e 57 63
e 57 68
e 57 73
e 57 87
e 57 100
e 57 105
e 57 113
e 57 119
e 57 120
e 57 121
e 57 127
e 57 137
e 57 140
e 57 144
e 57 149
e 58 62
e 58 76
e 58 78
e 58 87
e 58 102
e 58 107
e 58 109
e 58 112
e 58 120
e 58 130
e 58 153
e 59 66
e 59 74
e 59 82
e 59 84
e 59 122
e 59 127
e 59 138
e 59 148
e 59 151
e 60 62
e 60 66
e 60 69
e 60 83
e 60 84
e 60 89
e 60 93
e 60 100
e 60 116
e 60 122
e 60 132
e 60 149
e 61 82
e 61 83
e 61 117
e 61 125
e 61 132
e 61 147
e 61 152
e 61 154
e 62 69
e 62 80
e 62 83
e 62 88
e 62 98
e 62 109
e 62 115
e 62 130
e 62 134
e 62 155
e 63 85
e 63 92
e 63 94
e 63 100
e 63 102
e 63 115
e 63 128
e 63 134
e 63 137
e 63 143
e 63 144
e 63 154
e 64 68
e 64 76
e 64 86
e 64 91
e 64 102
e 64 113
e 64 122
e 64 125
e 64 139
e 64 157
e 65 67
e 65 89
e 65 104
e 65 106
e 65 108
e 66 70
e 66 92
e 66 100
e 66 109
e 66 113
e 66 147
e 66 160
e 67 74
e 67 76
e 67 90
e 67 94
e 67 101
e 67 113
e 67 121
e 67 141
e 67 149
e 67 158
e 67 159
e 68 79
e 68 80
e 68 86
e 68 88
e 68 106
e 68 124
e 68 139
e 68 153
e 69 71
e 69 77
e 69 95
e 69 131
e 69 133
e 70 72
e 70 79
e 70 89
e 70 111
e 70 112
e 70 132
e 70 136
e 71 86
e 71 91
e 71 96
e 71 101
e 71 103
e 71 106
e 71 108
e 71 138
e 71 149
e 71 155
e 72 74
e 72 87
e 72 92
e 72 102
e 72 113
e 72 124
e 73 95
e 73 98
e 73 99
e 73 105
e 73 116
e 73 121
e 73 132
e 73 147
e 74 87
e 74 90
e 74 94
e 74 104
e 74 109
e 74 112
e 74 135
e 74 139
e 74 146
e 74 147
e 74 151
e 74 152
e 75 79
e 75 92
e 75 117
e 75 134
e 75 151
e 75 156
e 76 90
e 76 93
e 76 108
e 76 113
e 76 116
e 76 123
e 76 139
e 76 155
e 76 156
e 76 160
e 77 86
e 77 91
e 77 95
e 77 100
e 77 104
e 77 108
e 77 117
e 77 120
e 77 128
e 77 138
e 77 143
e 77 151
e 78 80
e 78 96
e 78 98
e 78 106
e 78 119
e 78 128
e 78 130
e 78 139
e 78 147
e 79 85
e 79 110
e 79 115
e 79 123
e 79 130
e 79 135
e 79 146
e 79 152
e 80 87
e 80 98
e 80 114
e 80 115
e 80 134
e 80 135
e 80 139
e 80 152
e 80 154
e 81 82
e 81 113
e 81 130
e 81 132
e 81 134
e 81 152
e 82 83
e 82 85
e 82 86
e 82 87
e 82 94
e 82 139
e 82 154
e 83 104
e 83 113
e 83 120
e 83 136
e 83 138
e 83 141
e 83 145
e 84 85
e 84 87
e 84 108
e 84 110
e 84 113
e 85 87
e 85 100
e 85 105
e 85 109
e 85 119
e 85 137
e 85 140
e 85 142
e 85 160
e 86 100
e 86 102
e 86 133
e 86 136
e 86 150
e 87 106
e 87 117
e 87 122
e 87 132
e 87 145
e 87 153
e 88 111
e 88 112
e 88 115
e 88 127
e 88 129
e 88 150
e 88 153
e 88 154
e 89 93
e 89 108
e 89 123
e 89 137
e 89 139
e 89 152
e 90 92
e 90 95
e 90 109
e 90 112
e 90 125
e 90 130
e 90 141
e 90 147
e 90 153
e 90 155
e 91 100
e 91 121
e 91 141
e 91 153
e 91 154
e 91 156
e 91 159
e 92 93
e 92 102
e 92 104
e 92 114
e 92 131
e 92 136
e 92 141
e 92 159
e 93 103
e 93 114
e 93 116
e 93 118
e 93 121
e 93 132
e 93 155
e 94 105
e 94 109
e 94 123
e 94 159
e 95 115
e 95 137
e 95 148
e 96 105
e 96 113
e 96 151
e 97 102
e 97 110
e 97 114
e 97 126
e 97 131
e 97 141
e 97 145
e 98 107
e 98 126
e 98 128
e 98 150
e 98 158
e 99 104
e 99 105
e 99 119
e 99 127
e 99 132
e 99 139
e 99 149
e 99 159
e 100 106
e 100 120
e 100 132
e 100 138
e 100 145
e 100 157
e 101 103
e 101 108
e 101 112
e 101 136
e 101 146
e 102 123
e 102 125
e 102 128
e 102 133
e 103 116
e 103 121
e 103 134
e 103 150
e 103 152
e 104 110
e 104 112
e 104 113
e 104 129
e 104 153
e 104 155
e 104 157
e 105 127
e 105 132
e 105 152
e 106 109
e 106 121
e 106 122
e 106 125
e 106 144
e 107 116
e 107 118
e 108 122
e 108 124
e 108 128
e 108 129
e 108 134
e 108 136
e 108 140
e 108 149
e 108 156
e 109 115
e 109 126
e 109 132
e 109 150
e 110 121
e 110 126
e 110 136
e 110 139
e 110 145
e 110 148
e 111 122
e 111 130
e 111 150
e 111 156
e 112 127
e 112 131
e 112 134
e 112 140
e 112 141
e 113 118
e 114 116
e 114 140
e 114 144
e 114 146
e 114 148
e 114 156
e 114 160
e 115 117
e 115 128
e 115 141
e 116 124
e 116 149
e 116 160
e 117 123
e 117 127
e 117 128
e 117 129
e 117 130
e 118 120
e 118 128
e 118 129
e 118 130
e 118 133
e 118 137
e 118 141
e 118 149
e 119 130
e 119 136
e 119 139
e 119 148
e 119 150
e 119 155
e 119 156
e 119 158
e 120 131
e 120 141
e 120 143
e 121 124
e 121 132
e 121 134
e 121 141
e 121 156
e 121 160
e 122 132
e 122 135
e 122 138
e 122 143
e 122 148
e 122 152
e 122 154
e 122 160
e 123 132
e 123 135
e 123 157
e 124 153
e 125 130
e 125 131
e 125 137
e 125 148
e 125 149
e 127 132
e 127 143
e 127 152
e 127 154
e 128 129
e 128 134
e 128 145
e 128 157
e 129 141
e 129 144
e 129 155
e 130 131
e 130 132
e 130 134
e 130 137
e 130 150
e 130 156
e 131 140
e 132 134
e 132 149
e 132 154
e 133 136
e 133 142
e 133 143
e 133 146
e 133 151
e 134 142
e 135 138
e 136 143
e 136 157
e 137 140
e 137 145
e 137 153
e 137 157
e 138 139
e 138 150
e 138 154
e 138 155
e 139 144
e 139 157
e 140 154
e 142 143
e 142 156
e 143 154
e 144 145
e 144 148
e 144 150
e 144 152
e 144 155
e 144 156
e 145 156
e 146 154
e 146 155
e 147 150
e 147 157
e 148 158
e 149 156
e 149 160
e 151 152
e 152 153
e 153 156
e 154 155
e 154 159
e 155 159
e 157 159
e 158 159
e 159 160
